c status 186 1469385916855
c status 29 1469385916858
s td 114 29 193
b 1 107 1
b 2 108 1
b 3 80 102 1
b 4 109 110 1
b 5 112 110 1
b 6 113 110 1
b 7 115 110 1
b 8 117 128 139 106 1
b 9 128 139 106 150 1
b 10 139 161 106 150 1
b 11 119 120 110 118 121 1
b 12 172 161 3 106 150 1
b 13 161 3 14 106 150 1
b 14 125 126 123 124 110 1 122
b 15 100 92 88 70 76 1 145
b 16 126 123 124 129 110 1 122
b 17 69 3 14 47 58 106 150 1
b 18 36 3 14 47 58 106 150 1
b 19 123 124 129 130 110 118 121 1 122
b 20 124 129 130 131 110 118 121 1 122
b 21 144 143 142 140 141 133 110 1 122 127 138
b 22 129 130 131 132 133 110 118 121 1 122 127
b 23 143 142 140 141 133 135 110 1 122 127 138
b 24 130 131 132 133 134 110 118 121 1 122 127
b 25 142 140 141 137 133 135 110 1 122 127 138
b 26 131 132 133 134 135 110 118 121 1 122 127
b 27 140 141 137 136 133 135 110 1 122 127 138
b 28 137 136 133 134 135 110 1 122 127 138
b 29 136 132 133 134 135 110 1 122 127 138
b 30 132 133 134 135 110 118 121 1 122 127 138
b 31 167 1 122 127 138 145 146 147 158 164 165
b 32 168 1 122 127 138 145 146 147 158 164 165
b 33 166 1 122 127 138 145 146 147 158 164 165
b 34 92 88 70 76 98 97 96 95 94 93 1 145
b 35 148 149 151 110 118 121 1 122 127 138 145 146 147
b 36 88 70 76 98 97 96 95 94 93 90 89 1 145
b 37 149 151 152 110 118 121 1 122 127 138 145 146 147
b 38 151 152 153 110 118 121 1 122 127 138 145 146 147
b 39 154 152 153 155 110 118 121 1 122 127 138 145 146 147
b 40 178 179 180 1 122 127 138 145 146 147 158 164 165 171
b 41 152 153 156 155 110 118 121 1 122 127 138 145 146 147
b 42 179 181 180 1 122 127 138 145 146 147 158 164 165 171
b 43 153 157 156 155 110 118 121 1 122 127 138 145 146 147
b 44 181 184 180 1 122 127 138 145 146 147 158 164 165 171
b 45 157 156 155 159 110 118 121 1 122 127 138 145 146 147
b 46 163 162 155 160 110 118 121 1 122 127 138 145 146 147 158
b 47 156 162 155 159 160 110 118 121 1 122 127 138 145 146 147
b 48 162 155 159 160 110 118 121 1 122 127 138 145 146 147 158
b 49 110 118 121 1 25 91 122 127 138 145 146 147 158 183
b 50 191 192 1 122 127 138 145 146 147 158 164 165 171 182 189
b 51 187 180 185 186 1 122 127 138 145 146 147 158 164 165 171 182
b 52 118 121 1 25 91 111 114 116 122 127 138 145 146 147 158 183
b 53 184 180 185 186 1 122 127 138 145 146 147 158 164 165 171 182
b 54 188 180 185 186 190 1 122 127 138 145 146 147 158 164 165 171 182
b 55 190 1 122 127 138 145 146 147 158 164 165 171 182 189
b 56 9 1 7 8 122 127 138 145 146 147 158 164 165 171 182 189 193
b 57 169 170 177 173 174 175 176 1 122 127 138 145 146 147 158 164 165
b 58 170 177 173 174 175 176 1 116 122 127 138 145 146 147 158 164 165
b 59 6 4 5 1 7 122 127 138 145 146 147 158 164 165 171 182 189 193
b 60 177 173 174 175 176 2 1 116 122 127 138 145 146 147 158 164 165 171
b 61 10 11 1 7 8 122 127 138 145 146 147 158 164 165 171 182 189 193
b 62 13 1 7 8 12 122 127 138 145 146 147 158 164 165 171 182 189 193
b 63 15 1 7 8 12 122 127 138 145 146 147 158 164 165 171 182 189 193
b 64 21 20 1 7 8 12 16 122 127 138 145 146 147 158 164 165 171 182 189 193
b 65 53 54 50 1 8 12 16 22 122 127 138 145 146 147 158 164 165 171 182 189 193
b 66 55 54 50 1 8 12 16 22 122 127 138 145 146 147 158 164 165 171 182 189 193
b 67 61 62 23 1 8 12 16 22 122 127 138 145 146 147 158 164 165 171 182 189 193
b 68 63 62 23 1 8 12 16 22 122 127 138 145 146 147 158 164 165 171 182 189 193
b 69 17 18 19 1 7 8 12 16 122 127 138 145 146 147 158 164 165 171 182 189 193
b 70 18 19 20 1 7 8 12 16 122 127 138 145 146 147 158 164 165 171 182 189 193
b 71 27 26 20 1 7 8 12 16 22 122 127 138 145 146 147 158 164 165 171 182 189 193
b 72 29 28 26 1 7 8 12 16 22 122 127 138 145 146 147 158 164 165 171 182 189 193
b 73 64 62 65 23 1 8 12 16 22 122 127 138 145 146 147 158 164 165 171 182 189 193
b 74 28 26 20 1 7 8 12 16 22 122 127 138 145 146 147 158 164 165 171 182 189 193
b 75 24 26 20 1 7 8 12 16 22 122 127 138 145 146 147 158 164 165 171 182 189 193
b 76 101 23 1 8 12 16 22 99 103 111 122 127 138 145 146 147 158 164 165 171 182 189 193
b 77 44 43 41 45 1 7 8 12 16 22 122 127 138 145 146 147 158 164 165 171 182 189 193
b 78 104 105 23 1 8 12 16 22 99 103 122 127 138 145 146 147 158 164 165 171 182 189 193
b 79 83 71 50 1 8 12 16 22 99 103 122 127 138 145 146 147 158 164 165 171 182 189 193
b 80 30 19 31 20 1 7 8 12 16 22 122 127 138 145 146 147 158 164 165 171 182 189 193
b 81 84 72 71 50 1 8 12 16 22 99 122 127 138 145 146 147 158 164 165 171 182 189 193
b 82 57 54 56 59 50 1 8 12 16 22 122 127 138 145 146 147 158 164 165 171 182 189 193
b 83 60 54 56 59 50 1 8 12 16 22 122 127 138 145 146 147 158 164 165 171 182 189 193
b 84 39 42 40 41 1 7 8 12 16 22 122 127 138 145 146 147 158 164 165 171 182 189 193
b 85 82 68 23 1 8 12 16 22 99 103 122 127 138 145 146 147 158 164 165 171 182 189 193
b 86 42 40 43 41 1 7 8 12 16 22 122 127 138 145 146 147 158 164 165 171 182 189 193
b 87 86 50 67 1 8 12 16 22 73 99 103 122 127 138 145 146 147 158 164 165 171 182 189 193
b 88 85 74 71 50 1 8 12 16 22 99 103 122 127 138 145 146 147 158 164 165 171 182 189 193
b 89 78 75 77 23 1 8 12 16 22 99 103 122 127 138 145 146 147 158 164 165 171 182 189 193
b 90 81 68 23 66 1 8 12 16 22 99 103 122 127 138 145 146 147 158 164 165 171 182 189 193
b 91 48 49 46 41 45 1 7 8 12 16 22 122 127 138 145 146 147 158 164 165 171 182 189 193
b 92 68 79 23 66 1 8 12 16 22 99 103 122 127 138 145 146 147 158 164 165 171 182 189 193
b 93 49 46 41 45 51 1 7 8 12 16 22 122 127 138 145 146 147 158 164 165 171 182 189 193
b 94 23 66 1 8 12 16 22 91 99 103 111 122 127 138 145 146 147 158 164 165 171 182 189 193
b 95 46 41 45 51 52 1 7 8 12 16 22 122 127 138 145 146 147 158 164 165 171 182 189 193
b 96 51 52 50 1 7 8 12 16 22 122 127 138 145 146 147 158 164 165 171 182 189 193
b 97 32 19 31 33 20 1 7 8 12 16 22 122 127 138 145 146 147 158 164 165 171 182 189 193
b 98 19 34 31 33 20 1 7 8 12 16 22 122 127 138 145 146 147 158 164 165 171 182 189 193
b 99 87 71 50 67 1 8 12 16 22 73 99 103 122 127 138 145 146 147 158 164 165 171 182 189 193
b 100 50 67 1 7 8 12 16 22 73 99 103 122 127 138 145 146 147 158 164 165 171 182 189 193
b 101 34 31 33 35 37 20 1 7 8 12 16 22 122 127 138 145 146 147 158 164 165 171 182 189 193
b 102 38 31 33 35 37 20 1 7 8 12 16 22 122 127 138 145 146 147 158 164 165 171 182 189 193
b 103 98 97 96 95 94 93 90 89 2 1 8 12 16 22 25 91 111 114 116 122 145 182 183 189 193
b 104 97 96 95 94 93 90 89 2 1 8 12 16 22 25 91 111 114 116 122 145 171 182 183 189 193
b 105 96 95 94 93 90 89 2 1 8 12 16 22 25 91 111 114 116 122 145 165 171 182 183 189 193
b 106 95 94 93 90 89 2 1 8 12 16 22 25 91 111 114 116 122 145 164 165 171 182 183 189 193
b 107 94 93 90 89 2 1 8 12 16 22 25 91 111 114 116 122 145 158 164 165 171 182 183 189 193
b 108 93 90 89 2 1 8 12 16 22 25 91 111 114 116 122 145 147 158 164 165 171 182 183 189 193
b 109 90 89 2 1 8 12 16 22 25 91 111 114 116 122 145 146 147 158 164 165 171 182 183 189 193
b 110 89 2 1 8 12 16 22 25 91 111 114 116 122 138 145 146 147 158 164 165 171 182 183 189 193
b 111 2 1 8 12 16 22 25 91 111 114 116 122 127 138 145 146 147 158 164 165 171 182 183 189 193
b 112 20 1 7 8 12 16 22 25 91 111 114 116 122 127 138 145 146 147 158 164 165 171 182 183 189 193
b 113 66 1 8 12 16 22 25 91 99 103 111 114 116 122 127 138 145 146 147 158 164 165 171 182 183 189 193
b 114 67 1 7 8 12 16 22 25 73 91 99 103 111 114 116 122 127 138 145 146 147 158 164 165 171 182 183 189 193
1 2
1 114
114 113
114 112
113 111
111 110
110 109
109 108
108 107
107 106
106 105
105 104
104 103
113 94
114 100
100 87
100 99
94 92
92 90
94 76
99 79
99 88
92 85
94 78
94 89
99 81
100 96
96 95
95 93
93 91
93 77
77 86
86 84
112 102
102 101
101 98
98 97
98 80
112 71
71 74
71 75
74 72
98 70
70 69
94 67
67 68
67 73
100 65
65 66
65 82
82 83
112 64
64 63
100 62
100 56
100 61
100 59
113 52
81 50
62 55
111 60
60 58
58 57
52 49
55 54
54 51
54 53
53 44
44 42
42 40
49 46
46 48
48 47
47 45
45 43
43 41
41 39
41 38
38 37
37 35
113 33
103 36
36 34
113 31
31 32
49 30
30 26
26 24
24 22
30 29
29 28
28 27
27 25
25 23
23 21
22 20
20 19
34 15
19 16
16 14
38 11
37 5
47 7
24 4
16 6
71 17
17 18
17 13
13 12
13 10
10 9
9 8
78 3
